321 5
10 10 10 10 10 

0 0 0 0 0 0 3 2 34 66 
0 0 0 0 0 0 6 3 4 5 6 7 18 
2 0 1 1 1 0 4 19 10 9 8 
5 0 1 2 2 0 5 19 16 14 9 8 
10 0 2 3 5 0 3 14 9 8 
2 0 2 2 2 0 4 20 10 8 271 
4 0 3 5 4 0 4 22 20 15 10 
3 0 3 3 2 0 3 15 12 11 
2 0 3 1 4 0 2 20 13 
9 0 1 4 4 0 2 16 14 
2 0 2 1 2 0 2 23 17 
5 0 1 1 2 0 2 23 17 
10 0 1 3 2 0 2 23 17 
3 0 8 4 2 0 1 17 
6 0 3 4 2 0 1 17 
10 0 4 6 5 0 1 17 
5 0 2 1 2 0 5 32 31 28 24 21 
5 0 4 3 2 0 5 32 31 28 24 21 
5 0 1 2 2 0 3 31 26 24 
9 0 3 3 2 0 2 31 21 
10 0 2 2 2 0 2 29 25 
7 0 2 2 3 0 1 23 
5 0 3 3 2 0 3 32 31 29 
8 0 2 2 3 0 2 29 27 
5 0 3 1 3 0 1 26 
10 0 5 1 2 0 1 30 
1 0 2 2 1 0 1 30 
2 0 4 2 3 0 1 29 
5 0 1 3 3 0 1 33 
6 0 2 2 1 0 1 33 
2 0 1 3 2 0 1 33 
3 0 3 3 3 0 1 33 
0 0 0 0 0 0 1 160 
0 0 0 0 0 0 6 35 36 37 38 39 64 
8 0 1 0 1 1 3 42 41 40 
1 0 4 0 5 2 5 57 47 41 40 286 
1 0 2 0 2 3 3 46 41 40 
7 0 2 0 3 1 3 50 42 40 
7 0 3 0 1 2 4 56 50 45 42 
10 0 2 0 2 5 3 45 44 43 
2 0 2 0 1 4 3 51 50 48 
9 0 2 0 4 1 2 47 46 
6 0 2 0 1 4 2 51 49 
6 0 2 0 3 3 2 51 49 
1 0 3 0 2 1 1 49 
8 0 2 0 3 2 1 49 
2 0 3 0 3 3 1 49 
3 0 3 0 2 3 1 49 
10 0 1 0 3 2 6 63 62 61 59 55 52 
4 0 3 0 6 2 3 60 59 52 
10 0 2 0 3 2 3 61 60 59 
5 0 2 0 2 2 1 53 
3 0 3 0 2 3 1 54 
7 0 2 0 1 2 1 58 
5 0 5 0 3 1 1 60 
4 0 2 0 3 1 1 61 
1 0 1 0 2 4 1 59 
7 0 3 0 2 6 1 65 
4 0 2 0 1 3 1 65 
3 0 4 0 2 1 1 65 
8 0 2 0 2 2 1 65 
4 0 3 0 5 4 1 65 
7 0 2 0 3 3 1 65 
7 0 5 0 2 2 1 65 
0 0 0 0 0 0 1 160 
0 0 0 0 0 0 5 67 68 69 70 72 
10 0 0 0 1 0 3 74 73 71 
2 0 0 0 2 0 2 74 71 
5 0 0 0 1 0 2 76 73 
2 0 0 0 3 0 2 76 73 
10 0 0 0 2 0 2 76 75 
4 0 0 0 2 0 2 76 75 
8 0 0 0 4 0 1 75 
7 0 0 0 4 0 2 75 95 
9 0 0 0 2 0 1 77 
8 0 0 0 4 0 1 77 
0 0 0 0 0 0 2 78 100 
0 0 0 0 0 0 9 79 80 81 82 83 84 87 89 90 
9 1 0 0 0 1 5 98 97 92 88 85 
1 4 0 0 0 4 4 98 97 95 86 
9 2 0 0 0 1 4 97 96 92 88 
10 3 0 0 0 2 3 97 88 85 
7 3 0 0 0 3 3 92 88 85 
7 1 0 0 0 2 3 97 92 88 
2 1 0 0 0 5 4 96 95 93 91 
8 2 0 0 0 3 2 96 88 
1 1 0 0 0 4 3 96 93 92 
5 2 0 0 0 1 2 93 91 
2 2 0 0 0 3 2 93 91 
2 5 0 0 0 1 2 93 91 
3 3 0 0 0 1 1 94 
9 1 0 0 0 2 1 95 
5 2 0 0 0 3 1 99 
10 1 0 0 0 7 1 99 
7 4 0 0 0 3 2 99 208 
7 2 0 0 0 1 1 99 
1 3 0 0 0 1 1 99 
7 7 0 0 0 2 1 99 
0 0 0 0 0 0 1 160 
0 0 0 0 0 0 6 101 102 104 105 109 110 
10 0 1 0 0 0 2 108 106 
9 0 1 0 0 0 1 103 
3 0 4 0 0 0 2 106 317 
4 0 3 0 0 0 1 107 
9 0 1 0 0 0 1 106 
6 0 2 0 0 0 1 111 
1 0 3 0 0 0 1 111 
10 0 3 0 0 0 1 111 
7 0 4 0 0 0 1 111 
7 0 3 0 0 0 1 111 
0 0 0 0 0 0 4 112 124 136 148 
0 0 0 0 0 0 6 113 114 115 120 121 122 
6 0 0 0 1 0 3 119 118 117 
10 0 0 0 4 0 3 119 118 117 
4 0 0 0 1 0 2 118 116 
6 0 0 0 1 0 1 117 
4 0 0 0 3 0 1 123 
10 0 0 0 5 0 1 123 
8 0 0 0 3 0 2 123 262 
3 0 0 0 2 0 1 123 
4 0 0 0 3 0 1 123 
10 0 0 0 2 0 1 123 
0 0 0 0 0 0 1 160 
0 0 0 0 0 0 2 125 126 
5 0 0 0 1 0 2 134 128 
9 0 0 0 2 0 1 127 
5 0 0 0 5 0 6 134 133 132 131 130 129 
5 0 0 0 1 0 5 133 132 131 130 129 
4 0 0 0 4 0 1 135 
6 0 0 0 2 0 2 135 264 
1 0 0 0 3 0 1 135 
4 0 0 0 1 0 1 135 
7 0 0 0 1 0 1 135 
7 0 0 0 5 0 1 135 
0 0 0 0 0 0 1 160 
0 0 0 0 0 0 7 137 139 142 143 144 145 146 
1 0 0 0 0 1 1 138 
9 0 0 0 0 4 1 140 
6 0 0 0 0 4 1 141 
5 0 0 0 0 1 2 147 149 
2 0 0 0 0 1 1 147 
1 0 0 0 0 4 1 147 
5 0 0 0 0 3 1 147 
1 0 0 0 0 3 1 147 
10 0 0 0 0 1 1 147 
10 0 0 0 0 3 1 147 
0 0 0 0 0 0 1 160 
0 0 0 0 0 0 3 149 151 154 
6 0 0 0 1 0 5 158 157 153 152 150 
6 0 0 0 2 0 2 156 155 
7 0 0 0 2 0 1 152 
5 0 0 0 2 0 1 155 
4 0 0 0 1 0 2 155 199 
8 0 0 0 4 0 1 155 
3 0 0 0 3 0 1 159 
2 0 0 0 2 0 1 159 
5 0 0 0 5 0 1 159 
3 0 0 0 3 0 1 159 
0 0 0 0 0 0 1 160 
0 0 0 0 0 0 5 161 183 205 217 239 
0 0 0 0 0 0 4 162 163 165 168 
3 0 1 1 0 0 3 167 166 164 
8 0 3 1 0 0 2 174 166 
8 0 1 2 0 0 5 181 174 171 170 169 
9 0 3 2 0 0 2 170 167 
7 0 6 3 0 0 4 181 171 170 169 
2 0 1 3 0 0 3 181 171 169 
3 0 1 5 0 0 4 181 174 172 171 
10 0 2 1 0 0 4 179 175 173 172 
8 0 2 3 0 0 4 179 175 173 172 
5 0 2 2 0 0 3 179 176 175 
10 0 3 3 0 0 2 180 177 
4 0 2 4 0 0 2 178 177 
3 0 2 2 0 0 2 178 177 
2 0 3 3 0 0 2 178 278 
5 0 3 1 0 0 1 177 
2 0 3 2 0 0 1 182 
1 0 3 3 0 0 1 182 
6 0 3 4 0 0 1 182 
1 0 4 3 0 0 1 182 
3 0 2 2 0 0 1 182 
0 0 0 0 0 0 1 321 
0 0 0 0 0 0 11 184 185 186 188 192 193 194 200 201 202 203 
1 0 0 1 1 0 3 199 196 190 
3 0 0 2 2 0 2 197 189 
1 0 0 4 3 0 1 187 
10 0 0 2 3 0 3 198 196 191 
5 0 0 1 3 0 2 196 191 
3 0 0 2 3 0 1 190 
9 0 0 3 2 0 1 191 
7 0 0 3 4 0 1 195 
4 0 0 2 3 0 1 197 
1 0 0 2 1 0 1 197 
9 0 0 1 1 0 1 195 
4 0 0 4 4 0 2 204 286 
2 0 0 1 4 0 1 204 
9 0 0 6 1 0 1 204 
2 0 0 2 1 0 1 204 
7 0 0 5 2 0 1 204 
9 0 0 2 3 0 1 204 
4 0 0 1 4 0 1 204 
5 0 0 5 2 0 1 204 
3 0 0 1 3 0 1 204 
0 0 0 0 0 0 1 321 
0 0 0 0 0 0 7 206 207 208 209 211 215 242 
8 1 0 0 0 0 3 214 213 212 
8 3 0 0 0 0 3 214 213 212 
6 4 0 0 0 0 2 213 210 
10 1 0 0 0 0 1 210 
4 2 0 0 0 0 1 212 
9 2 0 0 0 0 1 212 
3 4 0 0 0 0 1 216 
3 2 0 0 0 0 1 216 
3 3 0 0 0 0 1 216 
7 3 0 0 0 0 1 216 
0 0 0 0 0 0 5 261 273 285 297 309 
0 0 0 0 0 0 10 218 219 220 223 224 225 226 228 236 237 
10 1 0 0 1 0 2 231 221 
3 3 0 0 3 0 2 231 222 
7 3 0 0 1 0 3 234 232 227 
5 5 0 0 4 0 3 235 232 229 
6 2 0 0 2 0 2 233 227 
3 4 0 0 2 0 2 232 229 
1 3 0 0 4 0 2 234 231 
6 1 0 0 3 0 2 233 230 
6 3 0 0 2 0 2 231 230 
5 3 0 0 3 0 1 229 
3 1 0 0 5 0 1 229 
10 3 0 0 2 0 1 230 
6 2 0 0 2 0 1 238 
8 1 0 0 2 0 1 238 
3 3 0 0 1 0 1 238 
6 2 0 0 3 0 1 238 
6 3 0 0 3 0 1 238 
5 3 0 0 3 0 2 238 264 
3 3 0 0 2 0 1 238 
8 1 0 0 2 0 1 238 
0 0 0 0 0 0 1 321 
0 0 0 0 0 0 6 240 241 242 243 244 245 
3 0 1 1 0 0 6 258 253 250 247 246 313 
1 0 2 2 0 0 4 259 258 247 246 
9 0 3 2 0 0 4 259 258 249 246 
10 0 1 3 0 0 6 259 258 257 256 252 249 
7 0 4 2 0 0 3 259 258 246 
7 0 2 3 0 0 3 258 256 248 
10 0 2 3 0 0 5 257 256 255 252 251 
3 0 3 2 0 0 3 257 256 249 
8 0 1 3 0 0 3 255 252 251 
5 0 6 2 0 0 2 255 251 
1 0 4 1 0 0 2 255 251 
6 0 3 4 0 0 1 254 
4 0 2 2 0 0 1 254 
1 0 2 3 0 0 1 254 
7 0 1 3 0 0 1 260 
4 0 1 4 0 0 1 260 
1 0 4 3 0 0 1 260 
5 0 2 1 0 0 1 260 
5 0 4 3 0 0 1 260 
3 0 2 3 0 0 1 260 
0 0 0 0 0 0 1 321 
0 0 0 0 0 0 7 262 263 265 268 269 270 271 
10 0 0 0 0 1 2 267 264 
8 0 0 0 0 3 2 264 304 
10 0 0 0 0 2 1 266 
9 0 0 0 0 2 1 266 
1 0 0 0 0 1 1 272 
4 0 0 0 0 3 1 272 
5 0 0 0 0 2 1 272 
6 0 0 0 0 4 1 272 
10 0 0 0 0 4 1 272 
1 0 0 0 0 3 1 272 
0 0 0 0 0 0 1 321 
0 0 0 0 0 0 5 274 275 277 278 279 
5 0 1 0 0 0 2 281 276 
10 0 5 0 0 0 2 281 276 
1 0 3 0 0 0 3 283 282 280 
2 0 2 0 0 0 2 281 280 
1 0 2 0 0 0 2 281 301 
5 0 3 0 0 0 1 280 
10 0 2 0 0 0 1 284 
7 0 4 0 0 0 1 284 
6 0 2 0 0 0 1 284 
2 0 1 0 0 0 1 284 
0 0 0 0 0 0 1 321 
0 0 0 0 0 0 3 286 287 288 
6 0 0 1 0 0 6 293 292 291 290 289 301 
4 0 0 2 0 0 5 293 292 291 290 289 
8 0 0 2 0 0 4 293 291 290 289 
5 0 0 2 0 0 2 295 294 
5 0 0 3 0 0 2 295 294 
9 0 0 1 0 0 2 295 294 
8 0 0 4 0 0 2 295 294 
10 0 0 3 0 0 1 294 
2 0 0 3 0 0 1 296 
6 0 0 4 0 0 1 296 
0 0 0 0 0 0 1 321 
0 0 0 0 0 0 5 298 299 301 306 307 
9 0 1 0 0 0 3 305 303 300 
2 0 3 0 0 0 2 303 302 
2 0 1 0 0 0 1 302 
3 0 3 0 0 0 2 304 319 
3 0 4 0 0 0 1 308 
1 0 3 0 0 0 1 308 
3 0 3 0 0 0 1 308 
2 0 2 0 0 0 1 308 
2 0 2 0 0 0 1 308 
4 0 3 0 0 0 1 308 
0 0 0 0 0 0 1 321 
0 0 0 0 0 0 5 310 311 313 318 319 
1 0 0 0 0 1 2 315 312 
3 0 0 0 0 2 2 317 314 
6 0 0 0 0 3 2 317 316 
5 0 0 0 0 3 1 314 
2 0 0 0 0 2 1 316 
7 0 0 0 0 1 1 316 
6 0 0 0 0 3 1 320 
6 0 0 0 0 2 1 320 
3 0 0 0 0 5 1 320 
6 0 0 0 0 3 1 320 
0 0 0 0 0 0 1 321 
0 0 0 0 0 0 0 
